g3 0 1 0	# problem kall_circles_c8a
 22 86 1 0 2	# vars, constraints, objectives, ranges, eqns
 37 0	# nonlinear constraints, objectives
 0 0	# network constraints: nonlinear, linear
 20 0 0	# nonlinear vars in constraints, objectives, both
 0 0 0 1	# linear network variables; functions; arith, flags
 0 0 0 0 0	# discrete variables: binary, integer, nonlinear (b,c,o)
 243 1	# nonzeros in Jacobian, gradients
 3 6	# max name lengths: constraints, variables
 0 0 0 0 0	# common exprs: b,c,o,c1,o1
b
0 .5 7.5
0 .5 1.6
0 .5 7.5
0 .5 1.6
0 .5 7.5
0 .5 1.6
0 .5 7.5
0 .5 1.6
0 .5 7.5
0 .5 1.6
0 .5 7.5
0 .5 1.6
0 .5 7.5
0 .5 1.6
0 .5 7.5
0 .5 1.6
0 .7 7.3
0 .7 1.4
0 0 8
0 0 2.1
0 .49 16.8
0 0 16.8
x19
0 .5
1 .5
2 .5
3 .5
4 .5
5 .5
6 .5
7 .5
8 .5
9 .5
10 .5
11 .5
12 .5
13 .5
14 .5
15 .5
16 .7
17 .7
20 .49
r
4 0
2 1
2 1
2 1
2 1
2 1
2 1
2 1
2 1.44
2 1
2 1
2 1
2 1
2 1
2 1
2 1.44
2 1
2 1
2 1
2 1
2 1
2 1.44
2 1
2 1
2 1
2 1
2 1.44
2 1
2 1
2 1
2 1.44
2 1
2 1
2 1.44
2 1
2 1.44
2 1.44
4 -7.82256570743859
1 -.5
1 -.5
1 -.5
1 -.5
1 -.5
1 -.5
1 -.5
1 -.5
1 -.5
1 -.5
1 -.5
1 -.5
1 -.5
1 -.5
1 -.5
1 -.5
1 -.7
1 -.7
1 4
1 1.05
1 0
1 0
1 0
1 0
1 0
1 0
1 0
1 0
1 0
1 0
1 0
1 0
1 0
1 0
1 0
1 0
1 0
1 0
1 0
1 0
1 0
1 0
1 0
1 0
1 0
1 0
1 0
1 0
C0
o16
o2
v18
v19
C1
o0
o2
o1
v0
v2
o1
v0
v2
o2
o1
v1
v3
o1
v1
v3
C2
o0
o2
o1
v0
v4
o1
v0
v4
o2
o1
v1
v5
o1
v1
v5
C3
o0
o2
o1
v0
v6
o1
v0
v6
o2
o1
v1
v7
o1
v1
v7
C4
o0
o2
o1
v0
v8
o1
v0
v8
o2
o1
v1
v9
o1
v1
v9
C5
o0
o2
o1
v0
v10
o1
v0
v10
o2
o1
v1
v11
o1
v1
v11
C6
o0
o2
o1
v0
v12
o1
v0
v12
o2
o1
v1
v13
o1
v1
v13
C7
o0
o2
o1
v0
v14
o1
v0
v14
o2
o1
v1
v15
o1
v1
v15
C8
o0
o2
o1
v0
v16
o1
v0
v16
o2
o1
v1
v17
o1
v1
v17
C9
o0
o2
o1
v2
v4
o1
v2
v4
o2
o1
v3
v5
o1
v3
v5
C10
o0
o2
o1
v2
v6
o1
v2
v6
o2
o1
v3
v7
o1
v3
v7
C11
o0
o2
o1
v2
v8
o1
v2
v8
o2
o1
v3
v9
o1
v3
v9
C12
o0
o2
o1
v2
v10
o1
v2
v10
o2
o1
v3
v11
o1
v3
v11
C13
o0
o2
o1
v2
v12
o1
v2
v12
o2
o1
v3
v13
o1
v3
v13
C14
o0
o2
o1
v2
v14
o1
v2
v14
o2
o1
v3
v15
o1
v3
v15
C15
o0
o2
o1
v2
v16
o1
v2
v16
o2
o1
v3
v17
o1
v3
v17
C16
o0
o2
o1
v4
v6
o1
v4
v6
o2
o1
v5
v7
o1
v5
v7
C17
o0
o2
o1
v4
v8
o1
v4
v8
o2
o1
v5
v9
o1
v5
v9
C18
o0
o2
o1
v4
v10
o1
v4
v10
o2
o1
v5
v11
o1
v5
v11
C19
o0
o2
o1
v4
v12
o1
v4
v12
o2
o1
v5
v13
o1
v5
v13
C20
o0
o2
o1
v4
v14
o1
v4
v14
o2
o1
v5
v15
o1
v5
v15
C21
o0
o2
o1
v4
v16
o1
v4
v16
o2
o1
v5
v17
o1
v5
v17
C22
o0
o2
o1
v6
v8
o1
v6
v8
o2
o1
v7
v9
o1
v7
v9
C23
o0
o2
o1
v6
v10
o1
v6
v10
o2
o1
v7
v11
o1
v7
v11
C24
o0
o2
o1
v6
v12
o1
v6
v12
o2
o1
v7
v13
o1
v7
v13
C25
o0
o2
o1
v6
v14
o1
v6
v14
o2
o1
v7
v15
o1
v7
v15
C26
o0
o2
o1
v6
v16
o1
v6
v16
o2
o1
v7
v17
o1
v7
v17
C27
o0
o2
o1
v8
v10
o1
v8
v10
o2
o1
v9
v11
o1
v9
v11
C28
o0
o2
o1
v8
v12
o1
v8
v12
o2
o1
v9
v13
o1
v9
v13
C29
o0
o2
o1
v8
v14
o1
v8
v14
o2
o1
v9
v15
o1
v9
v15
C30
o0
o2
o1
v8
v16
o1
v8
v16
o2
o1
v9
v17
o1
v9
v17
C31
o0
o2
o1
v10
v12
o1
v10
v12
o2
o1
v11
v13
o1
v11
v13
C32
o0
o2
o1
v10
v14
o1
v10
v14
o2
o1
v11
v15
o1
v11
v15
C33
o0
o2
o1
v10
v16
o1
v10
v16
o2
o1
v11
v17
o1
v11
v17
C34
o0
o2
o1
v12
v14
o1
v12
v14
o2
o1
v13
v15
o1
v13
v15
C35
o0
o2
o1
v12
v16
o1
v12
v16
o2
o1
v13
v17
o1
v13
v17
C36
o0
o2
o1
v14
v16
o1
v14
v16
o2
o1
v15
v17
o1
v15
v17
C37
n0
C38
n0
C39
n0
C40
n0
C41
n0
C42
n0
C43
n0
C44
n0
C45
n0
C46
n0
C47
n0
C48
n0
C49
n0
C50
n0
C51
n0
C52
n0
C53
n0
C54
n0
C55
n0
C56
n0
C57
n0
C58
n0
C59
n0
C60
n0
C61
n0
C62
n0
C63
n0
C64
n0
C65
n0
C66
n0
C67
n0
C68
n0
C69
n0
C70
n0
C71
n0
C72
n0
C73
n0
C74
n0
C75
n0
C76
n0
C77
n0
C78
n0
C79
n0
C80
n0
C81
n0
C82
n0
C83
n0
C84
n0
C85
n0
O0 0
n0
k21
17
27
43
52
68
77
93
102
118
127
143
152
168
177
193
202
211
220
230
240
242
J0 3
18 0
19 0
20 1
J1 4
0 0
1 0
2 0
3 0
J2 4
0 0
1 0
4 0
5 0
J3 4
0 0
1 0
6 0
7 0
J4 4
0 0
1 0
8 0
9 0
J5 4
0 0
1 0
10 0
11 0
J6 4
0 0
1 0
12 0
13 0
J7 4
0 0
1 0
14 0
15 0
J8 4
0 0
1 0
16 0
17 0
J9 4
2 0
3 0
4 0
5 0
J10 4
2 0
3 0
6 0
7 0
J11 4
2 0
3 0
8 0
9 0
J12 4
2 0
3 0
10 0
11 0
J13 4
2 0
3 0
12 0
13 0
J14 4
2 0
3 0
14 0
15 0
J15 4
2 0
3 0
16 0
17 0
J16 4
4 0
5 0
6 0
7 0
J17 4
4 0
5 0
8 0
9 0
J18 4
4 0
5 0
10 0
11 0
J19 4
4 0
5 0
12 0
13 0
J20 4
4 0
5 0
14 0
15 0
J21 4
4 0
5 0
16 0
17 0
J22 4
6 0
7 0
8 0
9 0
J23 4
6 0
7 0
10 0
11 0
J24 4
6 0
7 0
12 0
13 0
J25 4
6 0
7 0
14 0
15 0
J26 4
6 0
7 0
16 0
17 0
J27 4
8 0
9 0
10 0
11 0
J28 4
8 0
9 0
12 0
13 0
J29 4
8 0
9 0
14 0
15 0
J30 4
8 0
9 0
16 0
17 0
J31 4
10 0
11 0
12 0
13 0
J32 4
10 0
11 0
14 0
15 0
J33 4
10 0
11 0
16 0
17 0
J34 4
12 0
13 0
14 0
15 0
J35 4
12 0
13 0
16 0
17 0
J36 4
14 0
15 0
16 0
17 0
J37 2
20 -1
21 1
J38 2
0 1
18 -1
J39 2
1 1
19 -1
J40 2
2 1
18 -1
J41 2
3 1
19 -1
J42 2
4 1
18 -1
J43 2
5 1
19 -1
J44 2
6 1
18 -1
J45 2
7 1
19 -1
J46 2
8 1
18 -1
J47 2
9 1
19 -1
J48 2
10 1
18 -1
J49 2
11 1
19 -1
J50 2
12 1
18 -1
J51 2
13 1
19 -1
J52 2
14 1
18 -1
J53 2
15 1
19 -1
J54 2
16 1
18 -1
J55 2
17 1
19 -1
J56 1
0 1
J57 1
1 1
J58 2
0 1
2 -1
J59 2
0 1
4 -1
J60 2
0 1
6 -1
J61 2
0 1
8 -1
J62 2
0 1
10 -1
J63 2
0 1
12 -1
J64 2
0 1
14 -1
J65 2
2 1
4 -1
J66 2
2 1
6 -1
J67 2
2 1
8 -1
J68 2
2 1
10 -1
J69 2
2 1
12 -1
J70 2
2 1
14 -1
J71 2
4 1
6 -1
J72 2
4 1
8 -1
J73 2
4 1
10 -1
J74 2
4 1
12 -1
J75 2
4 1
14 -1
J76 2
6 1
8 -1
J77 2
6 1
10 -1
J78 2
6 1
12 -1
J79 2
6 1
14 -1
J80 2
8 1
10 -1
J81 2
8 1
12 -1
J82 2
8 1
14 -1
J83 2
10 1
12 -1
J84 2
10 1
14 -1
J85 2
12 1
14 -1
G0 1
21 1
